 $CONTRL SCFTYP=RHF RUNTYP=OPTIMIZE COORD=CART ICHARG=0 MULT=1 $END
 $BASIS GBASIS=N21 NGAUSS=3 $END
 $STATPT METHOD=QA NSTEP=20 OPTTOL=0.000100 $END
 $SYSTEM MEMDDI=16 TIMLIM=2400 MWORDS=96 $END
 $GUESS GUESS=HUCKEL $END
 $SCF DIRSCF=.TRUE. $END
 $DATA
H2
C1
Hydrogen          1.0     -0.5          0.0          0.0
Hydrogen          1.0      0.5          0.0          0.0
 $END
