 $SYSTEM MEMDDI=8 $END
 $CONTRL SCFTYP=RHF RUNTYP=OPTIMIZE COORD=CART ICHARG=0 MULT=1 $END
 $STATPT NSTEP=100 $END
 $SYSTEM TIMLIM=1200 MWORDS=96 $END
 $SCF DIRSCF=.TRUE. $END
 $BASIS GBASIS=N31 NGAUSS=6 NDFUNC=1 $END
 $GUESS GUESS=HUCKEL $END
 $DATA
Methanol
C1
    Carbon     6    -0.089318     0.334942     0.000000
  Hydrogen     1    -0.089318     1.414942     0.000000
  Hydrogen     1    -0.089318    -0.025569    -1.018053
    Oxygen     8     0.792655    -0.024802     0.509026
  Hydrogen     1    -0.971291    -0.024802     0.509026
  Hydrogen     1     1.595954    -0.144887    -0.202795
$END
